c SaDiCaL SAT Solver
c Copyright (C) 2018 by Armin Biere JKU
c
c Version 00n 481e664a7ffa9a307d3a0dad517daf5dde1989ef
c Compiler Apple clang version 15.0.0 (clang-1500.3.9.4)
c Options gcc -Wall -O3 -DNDEBUG -DNLOG
c proof path 'tests/regr2.prf'
c
c all options have default values
c
c parsing 'tests/regr2.cnf'
c found 'p cnf 5 8' header
c parsed DIMACS in 0.00 seconds
c 
c
c   time      reduced redundant irredundant
c       space  restarts glue   variables
c           level conflicts size remaining
c
c s 0.00 0.0 0.0 0 0 3 0 1.0 1.0 6 4 80%
c s 0.00 0.0 0.0 0 0 4 0 1.0 1.0 4 2 40%
c 0 0.00 0.0 0.0 0 0 6 0 1.0 1.0 4 0 0%
c
s UNSATISFIABLE
c
c simplifications:             2           3  conflicts/simplification  100%
c reductions:                  0           0  conflicts/reduction       100%
c restarts:                    0           0  conflicts/restart         100%
c conflicts:                   6        4699  conflicts/sec             100%
c decisions:                   3        2349  decisions/sec             100%
c propagations:               10         0.0  millions/sec               77%
c
c pure:                        0           0% of look-aheads
c look-ahead:                  3         100% of outer decisions        100%
c pruned:                      2          33% of outer conflicts         33%
c generated reducts:           2         100% satisfiable
c average size:                1          14% of all clauses
c pruning failed:              0           0% per reduct
c filter checks:               2          50% of outer satisfied clauses
c average filtered:          1.0          50% per reduct
c assumed literals:            4         2.0  per filter check
c
c collected clauses:        0.00 MB       56% of allocated clauses      100%
c allocated clauses:        0.00 MB        7% of allocated memory       100%
c maximum heap:             0.00 MB        0% of resident set size       57%
c
c looking:                  0.00 sec       0% of process time
c filtering:                0.00 sec       0% of process time
c pruning:                  0.00 sec       1% of process time
c simplifying:              0.00 sec       0% of process time
c
c resident set size:     1104.00 MB
c total process time:       0.00 sec
